NAME: berlin52
TYPE: MST
DIMENSION: 52
MST_SECTION
35 36
24 48
34 35
5 15
5 24
34 36
5 6
20 50
38 40
6 15
37 40
39 40
36 39
37 38
24 38
2 7
1 22
5 48
38 48
32 49
5 38
35 39
15 24
37 39
6 24
34 39
37 48
15 38
1 49
8 41
24 37
4 6
6 48
15 48
19 45
38 39
7 42
34 37
24 40
34 44
18 31
40 48
36 49
9 10
36 37
36 40
5 40
35 49
6 38
35 37
5 37
EOF